&CONTROL
calculation ='scf'
prefix = 'ZA'
outdir = './bin'
pseudo_dir = './PP/'
verbosity='high'
/

&system
ibrav = 0
nat = 12
ntyp = 2
ecutwfc =60  !Ryberg
ecutrho =240
occupations = 'smearing'
smearing = 'gaussian'
degauss = 0.01

!SOC
noncolin = .TRUE.
lspinorb = .TRUE.
starting_magnetization(1) = 0
starting_magnetization(2) = 0


/

&ELECTRONS
conv_thr = 1.0d-7
mixing_beta = 0.495
mixing_mode = 'TF'
diagonalization= 'david'
adaptive_thr=.true.
/

ATOMIC_SPECIES
Zr 91.224 Zr_pbe_v1.uspp.F.UPF 
As 74.9216 As.pbe-n-rrkjus_psl.0.2.UPF 


ATOMIC_POSITIONS (crystal)
Zr 0.250000 0.772677 0.161869
Zr 0.750000 0.227323 0.838131
Zr 0.250000 0.272677 0.338131
Zr 0.750000 0.727323 0.661869
As 0.250000 0.916993 0.852625
As 0.750000 0.083007 0.147375
As 0.250000 0.416993 0.647375
As 0.750000 0.583007 0.352625
As 0.750000 0.620326 0.957745
As 0.250000 0.379674 0.042255
As 0.750000 0.120326 0.542255
As 0.250000 0.879674 0.457745


CELL_PARAMETERS (angstrom)
3.726723 0.000000 0.000000
0.000000 6.862008 0.000000
0.000000 0.000000 9.144174


K_POINTS (automatic)
8 8 8 0 0 0
