&CONTROL
calculation ='scf'
prefix = 'HMS'
outdir = './bin'
pseudo_dir = './PP/'
verbosity='high'
/

&system
ibrav = 0
nat = 13
ntyp = 3
ecutwfc =60  !Ryberg
ecutrho =240
occupations = 'smearing'
smearing = 'gaussian'
degauss = 0.01

!SOC
noncolin = .TRUE.
lspinorb = .TRUE.
starting_magnetization(1) = 0
starting_magnetization(2) = 0
starting_magnetization(3) = 0

Hubbard_U(1) = 4.9
Hubbard_J0(1) = 1
lda_plus_u = .TRUE.
lda_plus_u_kind = 1

/

&ELECTRONS
conv_thr = 1.0d-7
mixing_beta = 0.495
mixing_mode = 'TF'
diagonalization= 'david'
adaptive_thr=.true.
/

ATOMIC_SPECIES
Ho 164.93032 Ho.rel-pbe-spdfn-kjpaw_psl.1.0.0.UPF 
Mn 54.938045 Mn.rel-pbe-spn-kjpaw_psl.1.0.0.UPF 
Sn 118.71 Sn.rel-pbe-dn-kjpaw_psl.1.0.0.UPF 


ATOMIC_POSITIONS (crystal)
Ho 0.000000 0.000000 0.000000
Mn 0.000000 0.500000 0.750000
Mn 0.000000 0.500000 0.250000
Mn 0.500000 0.500000 0.250000
Mn 0.500000 0.000000 0.250000
Mn 0.500000 0.500000 0.750000
Mn 0.500000 0.000000 0.750000
Sn 0.000000 0.000000 0.658000
Sn 0.333333 0.666667 0.500000
Sn 0.666667 0.333333 0.000000
Sn 0.333333 0.666667 0.000000
Sn 0.000000 0.000000 0.342000
Sn 0.666667 0.333333 0.500000


CELL_PARAMETERS (angstrom)
2.748500 -4.760542 0.000000
2.748500 4.760542 0.000000
0.000000 0.000000 9.032000


K_POINTS (automatic)
8 8 8 0 0 0
