write_hr = .TRUE.
write_xyz = .TRUE.
!wannier_plot = .TRUE. 
spinors = .FALSE.
num_wann = 120
dis_num_iter=1000
trial_step=50
num_iter = 2000



begin unit_cell_cart
3.088645 0.000000 0.000000
0.000000 3.088645 0.000000
0.000000 0.000000 10.576264
end unit_cell_cart


begin atoms_frac
Ta 0.000000 0.500000 0.250000
Ta 0.000000 0.000000 0.000000
Ta 0.500000 0.000000 0.750000
Ta 0.500000 0.500000 0.500000
P 0.500000 0.000000 0.166000
P 0.000000 0.000000 0.416000
P 0.000000 0.500000 0.666000
P 0.500000 0.500000 0.916000
end atoms_frac


begin projections 
random 
end projections


mp_grid = 4 4 4 
begin kpoints
  0.00000000   0.00000000   0.00000000 
  0.00000000   0.00000000   0.25000000 
  0.00000000   0.00000000   0.50000000 
  0.00000000   0.00000000   0.75000000 
  0.00000000   0.25000000   0.00000000 
  0.00000000   0.25000000   0.25000000 
  0.00000000   0.25000000   0.50000000 
  0.00000000   0.25000000   0.75000000 
  0.00000000   0.50000000   0.00000000 
  0.00000000   0.50000000   0.25000000 
  0.00000000   0.50000000   0.50000000 
  0.00000000   0.50000000   0.75000000 
  0.00000000   0.75000000   0.00000000 
  0.00000000   0.75000000   0.25000000 
  0.00000000   0.75000000   0.50000000 
  0.00000000   0.75000000   0.75000000 
  0.25000000   0.00000000   0.00000000 
  0.25000000   0.00000000   0.25000000 
  0.25000000   0.00000000   0.50000000 
  0.25000000   0.00000000   0.75000000 
  0.25000000   0.25000000   0.00000000 
  0.25000000   0.25000000   0.25000000 
  0.25000000   0.25000000   0.50000000 
  0.25000000   0.25000000   0.75000000 
  0.25000000   0.50000000   0.00000000 
  0.25000000   0.50000000   0.25000000 
  0.25000000   0.50000000   0.50000000 
  0.25000000   0.50000000   0.75000000 
  0.25000000   0.75000000   0.00000000 
  0.25000000   0.75000000   0.25000000 
  0.25000000   0.75000000   0.50000000 
  0.25000000   0.75000000   0.75000000 
  0.50000000   0.00000000   0.00000000 
  0.50000000   0.00000000   0.25000000 
  0.50000000   0.00000000   0.50000000 
  0.50000000   0.00000000   0.75000000 
  0.50000000   0.25000000   0.00000000 
  0.50000000   0.25000000   0.25000000 
  0.50000000   0.25000000   0.50000000 
  0.50000000   0.25000000   0.75000000 
  0.50000000   0.50000000   0.00000000 
  0.50000000   0.50000000   0.25000000 
  0.50000000   0.50000000   0.50000000 
  0.50000000   0.50000000   0.75000000 
  0.50000000   0.75000000   0.00000000 
  0.50000000   0.75000000   0.25000000 
  0.50000000   0.75000000   0.50000000 
  0.50000000   0.75000000   0.75000000 
  0.75000000   0.00000000   0.00000000 
  0.75000000   0.00000000   0.25000000 
  0.75000000   0.00000000   0.50000000 
  0.75000000   0.00000000   0.75000000 
  0.75000000   0.25000000   0.00000000 
  0.75000000   0.25000000   0.25000000 
  0.75000000   0.25000000   0.50000000 
  0.75000000   0.25000000   0.75000000 
  0.75000000   0.50000000   0.00000000 
  0.75000000   0.50000000   0.25000000 
  0.75000000   0.50000000   0.50000000 
  0.75000000   0.50000000   0.75000000 
  0.75000000   0.75000000   0.00000000 
  0.75000000   0.75000000   0.25000000 
  0.75000000   0.75000000   0.50000000 
  0.75000000   0.75000000   0.75000000 
end kpoints