write_hr = .TRUE.
write_xyz = .TRUE.
!wannier_plot = .TRUE. 
spinors = .FALSE.
num_wann = 120
dis_num_iter=1000
trial_step=50
num_iter = 2000



begin unit_cell_cart
3.526565 0.000000 0.000000
0.000000 6.515194 0.000000
0.000000 0.000000 8.822101
end unit_cell_cart


begin atoms_frac
Zr 0.250000 0.279633 0.836904
Zr 0.750000 0.720367 0.163096
Zr 0.250000 0.779633 0.663096
Zr 0.750000 0.220367 0.336904
P 0.250000 0.903480 0.356459
P 0.750000 0.096520 0.643541
P 0.250000 0.403480 0.143541
P 0.750000 0.596520 0.856459
P 0.750000 0.610268 0.460840
P 0.250000 0.389732 0.539160
P 0.750000 0.110268 0.039160
P 0.250000 0.889732 0.960840
end atoms_frac


begin projections 
random 
end projections


mp_grid = 4 4 4 
begin kpoints
  0.00000000   0.00000000   0.00000000 
  0.00000000   0.00000000   0.25000000 
  0.00000000   0.00000000   0.50000000 
  0.00000000   0.00000000   0.75000000 
  0.00000000   0.25000000   0.00000000 
  0.00000000   0.25000000   0.25000000 
  0.00000000   0.25000000   0.50000000 
  0.00000000   0.25000000   0.75000000 
  0.00000000   0.50000000   0.00000000 
  0.00000000   0.50000000   0.25000000 
  0.00000000   0.50000000   0.50000000 
  0.00000000   0.50000000   0.75000000 
  0.00000000   0.75000000   0.00000000 
  0.00000000   0.75000000   0.25000000 
  0.00000000   0.75000000   0.50000000 
  0.00000000   0.75000000   0.75000000 
  0.25000000   0.00000000   0.00000000 
  0.25000000   0.00000000   0.25000000 
  0.25000000   0.00000000   0.50000000 
  0.25000000   0.00000000   0.75000000 
  0.25000000   0.25000000   0.00000000 
  0.25000000   0.25000000   0.25000000 
  0.25000000   0.25000000   0.50000000 
  0.25000000   0.25000000   0.75000000 
  0.25000000   0.50000000   0.00000000 
  0.25000000   0.50000000   0.25000000 
  0.25000000   0.50000000   0.50000000 
  0.25000000   0.50000000   0.75000000 
  0.25000000   0.75000000   0.00000000 
  0.25000000   0.75000000   0.25000000 
  0.25000000   0.75000000   0.50000000 
  0.25000000   0.75000000   0.75000000 
  0.50000000   0.00000000   0.00000000 
  0.50000000   0.00000000   0.25000000 
  0.50000000   0.00000000   0.50000000 
  0.50000000   0.00000000   0.75000000 
  0.50000000   0.25000000   0.00000000 
  0.50000000   0.25000000   0.25000000 
  0.50000000   0.25000000   0.50000000 
  0.50000000   0.25000000   0.75000000 
  0.50000000   0.50000000   0.00000000 
  0.50000000   0.50000000   0.25000000 
  0.50000000   0.50000000   0.50000000 
  0.50000000   0.50000000   0.75000000 
  0.50000000   0.75000000   0.00000000 
  0.50000000   0.75000000   0.25000000 
  0.50000000   0.75000000   0.50000000 
  0.50000000   0.75000000   0.75000000 
  0.75000000   0.00000000   0.00000000 
  0.75000000   0.00000000   0.25000000 
  0.75000000   0.00000000   0.50000000 
  0.75000000   0.00000000   0.75000000 
  0.75000000   0.25000000   0.00000000 
  0.75000000   0.25000000   0.25000000 
  0.75000000   0.25000000   0.50000000 
  0.75000000   0.25000000   0.75000000 
  0.75000000   0.50000000   0.00000000 
  0.75000000   0.50000000   0.25000000 
  0.75000000   0.50000000   0.50000000 
  0.75000000   0.50000000   0.75000000 
  0.75000000   0.75000000   0.00000000 
  0.75000000   0.75000000   0.25000000 
  0.75000000   0.75000000   0.50000000 
  0.75000000   0.75000000   0.75000000 
end kpoints