&CONTROL
calculation ='scf'
prefix = 'SB'
outdir = './bin'
pseudo_dir = './PP/'
verbosity='high'
/

&system
ibrav = 0
nat = 7
ntyp = 2
ecutwfc =60  !Ryberg
ecutrho =240
occupations = 'smearing'
smearing = 'gaussian'
degauss = 0.01

!SOC
noncolin = .TRUE.
lspinorb = .TRUE.
starting_magnetization(1) = 0
starting_magnetization(2) = 0

Hubbard_U(1) = 7.4
Hubbard_J0(1) = 1
lda_plus_u = .TRUE.
lda_plus_u_kind = 1

/

&ELECTRONS
conv_thr = 1.0d-7
mixing_beta = 0.495
mixing_mode = 'TF'
diagonalization= 'david'
adaptive_thr=.true.
/

ATOMIC_SPECIES
Sm 150.36 Sm.GGA-PBE-paw-v1.0.UPF 
B 10.811 Ba_ONCV_PBE-1.0.upf 


ATOMIC_POSITIONS (crystal)
Sm 0.000000 0.000000 0.000000
B 0.199409 0.500000 0.500000
B 0.500000 0.500000 0.800591
B 0.500000 0.500000 0.199409
B 0.500000 0.199409 0.500000
B 0.500000 0.800591 0.500000
B 0.800591 0.500000 0.500000


CELL_PARAMETERS (angstrom)
4.119695 0.000000 0.000000
0.000000 4.119695 0.000000
0.000000 0.000000 4.119695


K_POINTS (automatic)
8 8 8 0 0 0
