ndtset 2 
enunit 1 #change to EV
prtvol 2 #print all kpoints
##### TA stucture ######
acell   3.43680000   3.43680001   6.30893379 angstrom 
angdeg   105.80568150   105.80568153   90.00000000
natom  4
xred
  0.41770000  0.41770000  0.83540000
  0.16770000  0.66770000  0.33540000
  0.00000000  0.00000000  0.00000000
  0.75000000  0.25000000  0.50000000
ntypat 2 #number of unique atoms
typat 1 1 2 2 #identity of atoms
znucl 33 73  # atomic mass of atoms
optforces 0 
########### PLANE WAVE INFO ##########
ecut 20  ry 
pawecutdg 22 ry
pawovlp  15
nstep 100
pawspnorb 1
nspinor 2
nsppol  1
nspden  1
######### END plane wave info ############


########### SCF STEP ##########
iscf 17
tolvrs1  1.00d-12 
ngkpt1 8 8 8
kptopt1 4
nshiftk 1 #just one shift is supported by wannier90
shiftk 0.00   0.00   0.00  #no shift 
prtden1 1
istwfk1 512*1 #Controls the form of the wavefunctions
########### NSCF STEP ##########
prtvol2  1
prtden2 1
iscf2 -2 
nstep2 0
tolwfr2 1.d-12
getwfk2 -1 # Get from SCF
getden2 -1 # Get den from SCF
istwfk2  64*1  #Controls the form of the wavefunctions
prtwant2 2   # Call to Wannier90
w90iniprj2 2
w90prtunk2 0   #Prints UNK files (for plotting the Wannier functions) 
kptopt2 0
nkpt2    64
kpt2
  0.00000000   0.00000000   0.00000000
  0.00000000   0.00000000   0.25000000
  0.00000000   0.00000000   0.50000000
  0.00000000   0.00000000   0.75000000
  0.00000000   0.25000000   0.00000000
  0.00000000   0.25000000   0.25000000
  0.00000000   0.25000000   0.50000000
  0.00000000   0.25000000   0.75000000
  0.00000000   0.50000000   0.00000000
  0.00000000   0.50000000   0.25000000
  0.00000000   0.50000000   0.50000000
  0.00000000   0.50000000   0.75000000
  0.00000000   0.75000000   0.00000000
  0.00000000   0.75000000   0.25000000
  0.00000000   0.75000000   0.50000000
  0.00000000   0.75000000   0.75000000
  0.25000000   0.00000000   0.00000000
  0.25000000   0.00000000   0.25000000
  0.25000000   0.00000000   0.50000000
  0.25000000   0.00000000   0.75000000
  0.25000000   0.25000000   0.00000000
  0.25000000   0.25000000   0.25000000
  0.25000000   0.25000000   0.50000000
  0.25000000   0.25000000   0.75000000
  0.25000000   0.50000000   0.00000000
  0.25000000   0.50000000   0.25000000
  0.25000000   0.50000000   0.50000000
  0.25000000   0.50000000   0.75000000
  0.25000000   0.75000000   0.00000000
  0.25000000   0.75000000   0.25000000
  0.25000000   0.75000000   0.50000000
  0.25000000   0.75000000   0.75000000
  0.50000000   0.00000000   0.00000000
  0.50000000   0.00000000   0.25000000
  0.50000000   0.00000000   0.50000000
  0.50000000   0.00000000   0.75000000
  0.50000000   0.25000000   0.00000000
  0.50000000   0.25000000   0.25000000
  0.50000000   0.25000000   0.50000000
  0.50000000   0.25000000   0.75000000
  0.50000000   0.50000000   0.00000000
  0.50000000   0.50000000   0.25000000
  0.50000000   0.50000000   0.50000000
  0.50000000   0.50000000   0.75000000
  0.50000000   0.75000000   0.00000000
  0.50000000   0.75000000   0.25000000
  0.50000000   0.75000000   0.50000000
  0.50000000   0.75000000   0.75000000
  0.75000000   0.00000000   0.00000000
  0.75000000   0.00000000   0.25000000
  0.75000000   0.00000000   0.50000000
  0.75000000   0.00000000   0.75000000
  0.75000000   0.25000000   0.00000000
  0.75000000   0.25000000   0.25000000
  0.75000000   0.25000000   0.50000000
  0.75000000   0.25000000   0.75000000
  0.75000000   0.50000000   0.00000000
  0.75000000   0.50000000   0.25000000
  0.75000000   0.50000000   0.50000000
  0.75000000   0.50000000   0.75000000
  0.75000000   0.75000000   0.00000000
  0.75000000   0.75000000   0.25000000
  0.75000000   0.75000000   0.50000000
  0.75000000   0.75000000   0.75000000
