write_hr = .TRUE.
write_xyz = .TRUE.
!wannier_plot = .TRUE. 
spinors = .FALSE.
num_wann = 120
dis_num_iter=1000
trial_step=50
num_iter = 2000



begin unit_cell_cart
4.656619 -0.006192 2.911725
1.610343 4.369317 2.911725
-0.008893 -0.006192 5.492009
end unit_cell_cart


begin atoms_frac
In 0.500000 0.500000 0.500000
In 0.000000 0.000000 0.000000
Co 0.500000 0.000000 0.000000
Co 0.000000 0.000000 0.500000
Co 0.000000 0.500000 0.000000
S 0.277126 0.277126 0.277126
S 0.722874 0.722874 0.722874
end atoms_frac


begin projections 
random 
end projections


mp_grid = 4 4 4 
begin kpoints
  0.00000000   0.00000000   0.00000000 
  0.00000000   0.00000000   0.25000000 
  0.00000000   0.00000000   0.50000000 
  0.00000000   0.00000000   0.75000000 
  0.00000000   0.25000000   0.00000000 
  0.00000000   0.25000000   0.25000000 
  0.00000000   0.25000000   0.50000000 
  0.00000000   0.25000000   0.75000000 
  0.00000000   0.50000000   0.00000000 
  0.00000000   0.50000000   0.25000000 
  0.00000000   0.50000000   0.50000000 
  0.00000000   0.50000000   0.75000000 
  0.00000000   0.75000000   0.00000000 
  0.00000000   0.75000000   0.25000000 
  0.00000000   0.75000000   0.50000000 
  0.00000000   0.75000000   0.75000000 
  0.25000000   0.00000000   0.00000000 
  0.25000000   0.00000000   0.25000000 
  0.25000000   0.00000000   0.50000000 
  0.25000000   0.00000000   0.75000000 
  0.25000000   0.25000000   0.00000000 
  0.25000000   0.25000000   0.25000000 
  0.25000000   0.25000000   0.50000000 
  0.25000000   0.25000000   0.75000000 
  0.25000000   0.50000000   0.00000000 
  0.25000000   0.50000000   0.25000000 
  0.25000000   0.50000000   0.50000000 
  0.25000000   0.50000000   0.75000000 
  0.25000000   0.75000000   0.00000000 
  0.25000000   0.75000000   0.25000000 
  0.25000000   0.75000000   0.50000000 
  0.25000000   0.75000000   0.75000000 
  0.50000000   0.00000000   0.00000000 
  0.50000000   0.00000000   0.25000000 
  0.50000000   0.00000000   0.50000000 
  0.50000000   0.00000000   0.75000000 
  0.50000000   0.25000000   0.00000000 
  0.50000000   0.25000000   0.25000000 
  0.50000000   0.25000000   0.50000000 
  0.50000000   0.25000000   0.75000000 
  0.50000000   0.50000000   0.00000000 
  0.50000000   0.50000000   0.25000000 
  0.50000000   0.50000000   0.50000000 
  0.50000000   0.50000000   0.75000000 
  0.50000000   0.75000000   0.00000000 
  0.50000000   0.75000000   0.25000000 
  0.50000000   0.75000000   0.50000000 
  0.50000000   0.75000000   0.75000000 
  0.75000000   0.00000000   0.00000000 
  0.75000000   0.00000000   0.25000000 
  0.75000000   0.00000000   0.50000000 
  0.75000000   0.00000000   0.75000000 
  0.75000000   0.25000000   0.00000000 
  0.75000000   0.25000000   0.25000000 
  0.75000000   0.25000000   0.50000000 
  0.75000000   0.25000000   0.75000000 
  0.75000000   0.50000000   0.00000000 
  0.75000000   0.50000000   0.25000000 
  0.75000000   0.50000000   0.50000000 
  0.75000000   0.50000000   0.75000000 
  0.75000000   0.75000000   0.00000000 
  0.75000000   0.75000000   0.25000000 
  0.75000000   0.75000000   0.50000000 
  0.75000000   0.75000000   0.75000000 
end kpoints