&inputpp 
outdir         = './bin'
prefix         = 'CIS'
seedname       = 'CIS'
spin_component = 'none'
write_mmn      = .true.
write_amn      = .true.
write_unk      = .false.
/
