&CONTROL
calculation ='nscf'
prefix = 'ICS'
outdir = './bin'
pseudo_dir = './PP/'
verbosity='high'
/

&system
ibrav = 0
nat = 7
ntyp = 3
ecutwfc =60  !Ryberg
ecutrho =240
occupations = 'fixed'
nosym = .true.
nbnd = 120
!SOC
noncolin = .FALSE.
lspinorb = .FALSE.
starting_magnetization(1) = 0
starting_magnetization(2) = 0
starting_magnetization(3) = 0


/

&ELECTRONS
conv_thr = 1.0d-7
mixing_beta = 0.495
mixing_mode = 'TF'
diagonalization= 'david'
adaptive_thr=.true.
/

ATOMIC_SPECIES
In 114.818 In.pbe-dn-rrkjus_psl.0.2.2.UPF 
Co 58.933195 Co_pbe_v1.2.uspp.F.UPF 
S 32.065 Sb_ONCV_PBE-1.0.upf 


ATOMIC_POSITIONS (crystal)
In 0.500000 0.500000 0.500000
In 0.000000 0.000000 0.000000
Co 0.000000 0.000000 0.500000
Co 0.000000 0.500000 0.000000
Co 0.500000 0.000000 0.000000
S 0.722935 0.722935 0.722935
S 0.277065 0.277065 0.277065


CELL_PARAMETERS (angstrom)
4.801133 -2.666609 0.000000
4.801133 2.666609 0.000000
3.320065 0.000000 4.374796


K_POINTS (crystal)
64
  0.00000000   0.00000000   0.00000000 1
  0.00000000   0.00000000   0.25000000 1
  0.00000000   0.00000000   0.50000000 1
  0.00000000   0.00000000   0.75000000 1
  0.00000000   0.25000000   0.00000000 1
  0.00000000   0.25000000   0.25000000 1
  0.00000000   0.25000000   0.50000000 1
  0.00000000   0.25000000   0.75000000 1
  0.00000000   0.50000000   0.00000000 1
  0.00000000   0.50000000   0.25000000 1
  0.00000000   0.50000000   0.50000000 1
  0.00000000   0.50000000   0.75000000 1
  0.00000000   0.75000000   0.00000000 1
  0.00000000   0.75000000   0.25000000 1
  0.00000000   0.75000000   0.50000000 1
  0.00000000   0.75000000   0.75000000 1
  0.25000000   0.00000000   0.00000000 1
  0.25000000   0.00000000   0.25000000 1
  0.25000000   0.00000000   0.50000000 1
  0.25000000   0.00000000   0.75000000 1
  0.25000000   0.25000000   0.00000000 1
  0.25000000   0.25000000   0.25000000 1
  0.25000000   0.25000000   0.50000000 1
  0.25000000   0.25000000   0.75000000 1
  0.25000000   0.50000000   0.00000000 1
  0.25000000   0.50000000   0.25000000 1
  0.25000000   0.50000000   0.50000000 1
  0.25000000   0.50000000   0.75000000 1
  0.25000000   0.75000000   0.00000000 1
  0.25000000   0.75000000   0.25000000 1
  0.25000000   0.75000000   0.50000000 1
  0.25000000   0.75000000   0.75000000 1
  0.50000000   0.00000000   0.00000000 1
  0.50000000   0.00000000   0.25000000 1
  0.50000000   0.00000000   0.50000000 1
  0.50000000   0.00000000   0.75000000 1
  0.50000000   0.25000000   0.00000000 1
  0.50000000   0.25000000   0.25000000 1
  0.50000000   0.25000000   0.50000000 1
  0.50000000   0.25000000   0.75000000 1
  0.50000000   0.50000000   0.00000000 1
  0.50000000   0.50000000   0.25000000 1
  0.50000000   0.50000000   0.50000000 1
  0.50000000   0.50000000   0.75000000 1
  0.50000000   0.75000000   0.00000000 1
  0.50000000   0.75000000   0.25000000 1
  0.50000000   0.75000000   0.50000000 1
  0.50000000   0.75000000   0.75000000 1
  0.75000000   0.00000000   0.00000000 1
  0.75000000   0.00000000   0.25000000 1
  0.75000000   0.00000000   0.50000000 1
  0.75000000   0.00000000   0.75000000 1
  0.75000000   0.25000000   0.00000000 1
  0.75000000   0.25000000   0.25000000 1
  0.75000000   0.25000000   0.50000000 1
  0.75000000   0.25000000   0.75000000 1
  0.75000000   0.50000000   0.00000000 1
  0.75000000   0.50000000   0.25000000 1
  0.75000000   0.50000000   0.50000000 1
  0.75000000   0.50000000   0.75000000 1
  0.75000000   0.75000000   0.00000000 1
  0.75000000   0.75000000   0.25000000 1
  0.75000000   0.75000000   0.50000000 1
  0.75000000   0.75000000   0.75000000 1
