&inputpp 
outdir         = './bin'
prefix         = 'ICS'
seedname       = 'ICS'
spin_component = 'none'
write_mmn      = .true.
write_amn      = .true.
write_unk      = .false.
/
