ndtset 2 
enunit 1 #change to EV
prtvol 2 #print all kpoints
##### HMS stucture ######
acell   5.49700000   5.49700000   9.03200000 angstrom 
angdeg   90.00000000   90.00000000   120.00000000
natom  13
xred
  0.00000000  0.00000000  0.00000000
  0.00000000  0.50000000  0.75000000
  0.00000000  0.50000000  0.25000000
  0.50000000  0.50000000  0.25000000
  0.50000000  0.00000000  0.25000000
  0.50000000  0.50000000  0.75000000
  0.50000000  0.00000000  0.75000000
  0.00000000  0.00000000  0.65800000
  0.33333333  0.66666667  0.50000000
  0.66666667  0.33333333  0.00000000
  0.33333333  0.66666667  0.00000000
  0.00000000  0.00000000  0.34200000
  0.66666667  0.33333333  0.50000000
ntypat 3 #number of unique atoms
typat 3 1 1 1 1 1 1 2 2 2 2 2 2 #identity of atoms
znucl 50 25 67  # atomic mass of atoms
optforces 0 
########### PLANE WAVE INFO ##########
ecut 20  ry 
pawecutdg 22 ry
pawovlp  15
nstep 100
usepawu 1
lpawu 2 -1 -1
upawu 4.9 0.0 0.0
jpawu 1.0 0.0 0.0
pawspnorb 1
nspinor 2
nsppol  1
nspden  1
######### END plane wave info ############


########### SCF STEP ##########
iscf 17
tolvrs1  1.00d-12 
ngkpt1 8 8 8
kptopt1 4
nshiftk 1 #just one shift is supported by wannier90
shiftk 0.00   0.00   0.00  #no shift 
prtden1 1
istwfk1 512*1 #Controls the form of the wavefunctions
########### NSCF STEP ##########
prtvol2  1
prtden2 1
iscf2 -2 
nstep2 0
tolwfr2 1.d-12
getwfk2 -1 # Get from SCF
getden2 -1 # Get den from SCF
istwfk2  64*1  #Controls the form of the wavefunctions
prtwant2 2   # Call to Wannier90
w90iniprj2 2
w90prtunk2 0   #Prints UNK files (for plotting the Wannier functions) 
kptopt2 0
nkpt2    64
kpt2
  0.00000000   0.00000000   0.00000000
  0.00000000   0.00000000   0.25000000
  0.00000000   0.00000000   0.50000000
  0.00000000   0.00000000   0.75000000
  0.00000000   0.25000000   0.00000000
  0.00000000   0.25000000   0.25000000
  0.00000000   0.25000000   0.50000000
  0.00000000   0.25000000   0.75000000
  0.00000000   0.50000000   0.00000000
  0.00000000   0.50000000   0.25000000
  0.00000000   0.50000000   0.50000000
  0.00000000   0.50000000   0.75000000
  0.00000000   0.75000000   0.00000000
  0.00000000   0.75000000   0.25000000
  0.00000000   0.75000000   0.50000000
  0.00000000   0.75000000   0.75000000
  0.25000000   0.00000000   0.00000000
  0.25000000   0.00000000   0.25000000
  0.25000000   0.00000000   0.50000000
  0.25000000   0.00000000   0.75000000
  0.25000000   0.25000000   0.00000000
  0.25000000   0.25000000   0.25000000
  0.25000000   0.25000000   0.50000000
  0.25000000   0.25000000   0.75000000
  0.25000000   0.50000000   0.00000000
  0.25000000   0.50000000   0.25000000
  0.25000000   0.50000000   0.50000000
  0.25000000   0.50000000   0.75000000
  0.25000000   0.75000000   0.00000000
  0.25000000   0.75000000   0.25000000
  0.25000000   0.75000000   0.50000000
  0.25000000   0.75000000   0.75000000
  0.50000000   0.00000000   0.00000000
  0.50000000   0.00000000   0.25000000
  0.50000000   0.00000000   0.50000000
  0.50000000   0.00000000   0.75000000
  0.50000000   0.25000000   0.00000000
  0.50000000   0.25000000   0.25000000
  0.50000000   0.25000000   0.50000000
  0.50000000   0.25000000   0.75000000
  0.50000000   0.50000000   0.00000000
  0.50000000   0.50000000   0.25000000
  0.50000000   0.50000000   0.50000000
  0.50000000   0.50000000   0.75000000
  0.50000000   0.75000000   0.00000000
  0.50000000   0.75000000   0.25000000
  0.50000000   0.75000000   0.50000000
  0.50000000   0.75000000   0.75000000
  0.75000000   0.00000000   0.00000000
  0.75000000   0.00000000   0.25000000
  0.75000000   0.00000000   0.50000000
  0.75000000   0.00000000   0.75000000
  0.75000000   0.25000000   0.00000000
  0.75000000   0.25000000   0.25000000
  0.75000000   0.25000000   0.50000000
  0.75000000   0.25000000   0.75000000
  0.75000000   0.50000000   0.00000000
  0.75000000   0.50000000   0.25000000
  0.75000000   0.50000000   0.50000000
  0.75000000   0.50000000   0.75000000
  0.75000000   0.75000000   0.00000000
  0.75000000   0.75000000   0.25000000
  0.75000000   0.75000000   0.50000000
  0.75000000   0.75000000   0.75000000
