write_hr = .TRUE.
write_xyz = .TRUE.
!wannier_plot = .TRUE. 
spinors = .FALSE.
num_wann = 120
dis_num_iter=1000
trial_step=50
num_iter = 2000



begin unit_cell_cart
13.698856 -2.180688 0.000000
13.698856 2.180688 0.000000
13.351718 0.000000 3.761076
end unit_cell_cart


begin atoms_frac
Mn 0.000000 0.000000 0.000000
Bi 0.576691 0.576691 0.576691
Bi 0.423309 0.423309 0.423309
Te 0.867045 0.867045 0.867045
Te 0.132955 0.132955 0.132955
Te 0.703980 0.703980 0.703980
Te 0.296020 0.296020 0.296020
end atoms_frac


begin projections 
random 
end projections


mp_grid = 4 4 4 
begin kpoints
  0.00000000   0.00000000   0.00000000 
  0.00000000   0.00000000   0.25000000 
  0.00000000   0.00000000   0.50000000 
  0.00000000   0.00000000   0.75000000 
  0.00000000   0.25000000   0.00000000 
  0.00000000   0.25000000   0.25000000 
  0.00000000   0.25000000   0.50000000 
  0.00000000   0.25000000   0.75000000 
  0.00000000   0.50000000   0.00000000 
  0.00000000   0.50000000   0.25000000 
  0.00000000   0.50000000   0.50000000 
  0.00000000   0.50000000   0.75000000 
  0.00000000   0.75000000   0.00000000 
  0.00000000   0.75000000   0.25000000 
  0.00000000   0.75000000   0.50000000 
  0.00000000   0.75000000   0.75000000 
  0.25000000   0.00000000   0.00000000 
  0.25000000   0.00000000   0.25000000 
  0.25000000   0.00000000   0.50000000 
  0.25000000   0.00000000   0.75000000 
  0.25000000   0.25000000   0.00000000 
  0.25000000   0.25000000   0.25000000 
  0.25000000   0.25000000   0.50000000 
  0.25000000   0.25000000   0.75000000 
  0.25000000   0.50000000   0.00000000 
  0.25000000   0.50000000   0.25000000 
  0.25000000   0.50000000   0.50000000 
  0.25000000   0.50000000   0.75000000 
  0.25000000   0.75000000   0.00000000 
  0.25000000   0.75000000   0.25000000 
  0.25000000   0.75000000   0.50000000 
  0.25000000   0.75000000   0.75000000 
  0.50000000   0.00000000   0.00000000 
  0.50000000   0.00000000   0.25000000 
  0.50000000   0.00000000   0.50000000 
  0.50000000   0.00000000   0.75000000 
  0.50000000   0.25000000   0.00000000 
  0.50000000   0.25000000   0.25000000 
  0.50000000   0.25000000   0.50000000 
  0.50000000   0.25000000   0.75000000 
  0.50000000   0.50000000   0.00000000 
  0.50000000   0.50000000   0.25000000 
  0.50000000   0.50000000   0.50000000 
  0.50000000   0.50000000   0.75000000 
  0.50000000   0.75000000   0.00000000 
  0.50000000   0.75000000   0.25000000 
  0.50000000   0.75000000   0.50000000 
  0.50000000   0.75000000   0.75000000 
  0.75000000   0.00000000   0.00000000 
  0.75000000   0.00000000   0.25000000 
  0.75000000   0.00000000   0.50000000 
  0.75000000   0.00000000   0.75000000 
  0.75000000   0.25000000   0.00000000 
  0.75000000   0.25000000   0.25000000 
  0.75000000   0.25000000   0.50000000 
  0.75000000   0.25000000   0.75000000 
  0.75000000   0.50000000   0.00000000 
  0.75000000   0.50000000   0.25000000 
  0.75000000   0.50000000   0.50000000 
  0.75000000   0.50000000   0.75000000 
  0.75000000   0.75000000   0.00000000 
  0.75000000   0.75000000   0.25000000 
  0.75000000   0.75000000   0.50000000 
  0.75000000   0.75000000   0.75000000 
end kpoints