&CONTROL
calculation ='scf'
prefix = 'ZS'
outdir = './bin'
pseudo_dir = './PP/'
verbosity='high'
/

&system
ibrav = 0
nat = 8
ntyp = 2
ecutwfc =60  !Ryberg
ecutrho =240
occupations = 'smearing'
smearing = 'gaussian'
degauss = 0.01

!SOC
noncolin = .TRUE.
lspinorb = .TRUE.
starting_magnetization(1) = 0
starting_magnetization(2) = 0


/

&ELECTRONS
conv_thr = 1.0d-7
mixing_beta = 0.495
mixing_mode = 'TF'
diagonalization= 'david'
adaptive_thr=.true.
/

ATOMIC_SPECIES
Zr 91.224 Zr_pbe_v1.uspp.F.UPF 
Sb 121.76 Sb_ONCV_PBE-1.0.upf 


ATOMIC_POSITIONS (crystal)
Zr 0.356657 0.856657 0.643343
Zr 0.643343 0.356657 0.856657
Zr 0.856657 0.643343 0.356657
Zr 0.143343 0.143343 0.143343
Sb 0.343208 0.656792 0.156792
Sb 0.843208 0.843208 0.843208
Sb 0.656792 0.156792 0.343208
Sb 0.156792 0.343208 0.656792


CELL_PARAMETERS (angstrom)
5.691970 0.000000 0.000000
0.000000 5.691970 0.000000
0.000000 0.000000 5.691970


K_POINTS (automatic)
8 8 8 0 0 0
