&CONTROL
calculation ='scf'
prefix = 'ZIS'
outdir = './bin'
pseudo_dir = './PP/'
verbosity='high'
/

&system
ibrav = 0
nat = 9
ntyp = 3
ecutwfc =60  !Ryberg
ecutrho =240
occupations = 'smearing'
smearing = 'gaussian'
degauss = 0.01

!SOC
noncolin = .FALSE.
lspinorb = .FALSE.
starting_magnetization(1) = 0
starting_magnetization(2) = 0
starting_magnetization(3) = 0


/

&ELECTRONS
conv_thr = 1.0d-7
mixing_beta = 0.495
mixing_mode = 'TF'
diagonalization= 'david'
adaptive_thr=.true.
/

ATOMIC_SPECIES
Zn 65.409 Zn_pbe_v1.uspp.F.UPF 
In 114.818 In.pbe-dn-rrkjus_psl.0.2.2.UPF 
S 32.065 Sb_ONCV_PBE-1.0.upf 


ATOMIC_POSITIONS (crystal)
In 0.103904 0.103904 0.103904
In 0.922265 0.922265 0.922265
S 0.008240 0.008240 0.008240
S 0.469226 0.469226 0.469226
S 0.611174 0.611174 0.611174
S 0.742984 0.742984 0.742984
S 0.868878 0.868878 0.868878
Zn 0.688196 0.688196 0.688196
Zn 0.517133 0.517133 0.517133


CELL_PARAMETERS (angstrom)
3.882188 -0.005707 15.311058
1.906044 3.382072 15.311058
-0.009783 -0.005707 15.795562


K_POINTS (automatic)
8 8 8 0 0 0
