&inputpp 
outdir         = './bin'
prefix         = 'CSS'
seedname       = 'CSS'
spin_component = 'none'
write_mmn      = .true.
write_amn      = .true.
write_unk      = .false.
/
