&CONTROL
calculation ='scf'
prefix = 'Z'
outdir = './bin'
pseudo_dir = './PP/'
verbosity='high'
/

&system
ibrav = 0
nat = 8
ntyp = 2
ecutwfc =60  !Ryberg
ecutrho =240
occupations = 'smearing'
smearing = 'gaussian'
degauss = 0.01

!SOC
noncolin = .FALSE.
lspinorb = .FALSE.
starting_magnetization(1) = 0
starting_magnetization(2) = 0


/

&ELECTRONS
conv_thr = 1.0d-7
mixing_beta = 0.495
mixing_mode = 'TF'
diagonalization= 'david'
adaptive_thr=.true.
/

ATOMIC_SPECIES
Zr 91.224 Zr_pbe_v1.uspp.F.UPF 
As 74.9216 As.pbe-n-rrkjus_psl.0.2.UPF 


ATOMIC_POSITIONS (crystal)
Zr 0.666667 0.333333 0.616289
Zr 0.333333 0.666667 0.116289
Zr 0.333333 0.666667 0.383711
Zr 0.666667 0.333333 0.883711
As 0.000000 0.000000 0.500000
As 0.000000 0.000000 0.000000
As 0.666667 0.333333 0.250000
As 0.333333 0.666667 0.750000


CELL_PARAMETERS (angstrom)
1.919086 -3.323955 0.000000
1.919086 3.323955 0.000000
0.000000 0.000000 13.007194


K_POINTS (automatic)
8 8 8 0 0 0
