write_hr = .TRUE.
write_xyz = .TRUE.
!wannier_plot = .TRUE. 
spinors = .FALSE.
num_wann = 120
dis_num_iter=1000
trial_step=50
num_iter = 2000



begin unit_cell_cart
1.919086 -3.323955 0.000000
1.919086 3.323955 0.000000
0.000000 0.000000 13.007194
end unit_cell_cart


begin atoms_frac
Zr 0.666667 0.333333 0.616289
Zr 0.333333 0.666667 0.116289
Zr 0.333333 0.666667 0.383711
Zr 0.666667 0.333333 0.883711
As 0.000000 0.000000 0.500000
As 0.000000 0.000000 0.000000
As 0.666667 0.333333 0.250000
As 0.333333 0.666667 0.750000
end atoms_frac


begin projections 
random 
end projections


mp_grid = 4 4 4 
begin kpoints
  0.00000000   0.00000000   0.00000000 
  0.00000000   0.00000000   0.25000000 
  0.00000000   0.00000000   0.50000000 
  0.00000000   0.00000000   0.75000000 
  0.00000000   0.25000000   0.00000000 
  0.00000000   0.25000000   0.25000000 
  0.00000000   0.25000000   0.50000000 
  0.00000000   0.25000000   0.75000000 
  0.00000000   0.50000000   0.00000000 
  0.00000000   0.50000000   0.25000000 
  0.00000000   0.50000000   0.50000000 
  0.00000000   0.50000000   0.75000000 
  0.00000000   0.75000000   0.00000000 
  0.00000000   0.75000000   0.25000000 
  0.00000000   0.75000000   0.50000000 
  0.00000000   0.75000000   0.75000000 
  0.25000000   0.00000000   0.00000000 
  0.25000000   0.00000000   0.25000000 
  0.25000000   0.00000000   0.50000000 
  0.25000000   0.00000000   0.75000000 
  0.25000000   0.25000000   0.00000000 
  0.25000000   0.25000000   0.25000000 
  0.25000000   0.25000000   0.50000000 
  0.25000000   0.25000000   0.75000000 
  0.25000000   0.50000000   0.00000000 
  0.25000000   0.50000000   0.25000000 
  0.25000000   0.50000000   0.50000000 
  0.25000000   0.50000000   0.75000000 
  0.25000000   0.75000000   0.00000000 
  0.25000000   0.75000000   0.25000000 
  0.25000000   0.75000000   0.50000000 
  0.25000000   0.75000000   0.75000000 
  0.50000000   0.00000000   0.00000000 
  0.50000000   0.00000000   0.25000000 
  0.50000000   0.00000000   0.50000000 
  0.50000000   0.00000000   0.75000000 
  0.50000000   0.25000000   0.00000000 
  0.50000000   0.25000000   0.25000000 
  0.50000000   0.25000000   0.50000000 
  0.50000000   0.25000000   0.75000000 
  0.50000000   0.50000000   0.00000000 
  0.50000000   0.50000000   0.25000000 
  0.50000000   0.50000000   0.50000000 
  0.50000000   0.50000000   0.75000000 
  0.50000000   0.75000000   0.00000000 
  0.50000000   0.75000000   0.25000000 
  0.50000000   0.75000000   0.50000000 
  0.50000000   0.75000000   0.75000000 
  0.75000000   0.00000000   0.00000000 
  0.75000000   0.00000000   0.25000000 
  0.75000000   0.00000000   0.50000000 
  0.75000000   0.00000000   0.75000000 
  0.75000000   0.25000000   0.00000000 
  0.75000000   0.25000000   0.25000000 
  0.75000000   0.25000000   0.50000000 
  0.75000000   0.25000000   0.75000000 
  0.75000000   0.50000000   0.00000000 
  0.75000000   0.50000000   0.25000000 
  0.75000000   0.50000000   0.50000000 
  0.75000000   0.50000000   0.75000000 
  0.75000000   0.75000000   0.00000000 
  0.75000000   0.75000000   0.25000000 
  0.75000000   0.75000000   0.50000000 
  0.75000000   0.75000000   0.75000000 
end kpoints