&CONTROL
calculation ='scf'
prefix = 'WP'
outdir = './bin'
pseudo_dir = './PP/'
verbosity='high'
/

&system
ibrav = 0
nat = 12
ntyp = 2
ecutwfc =60  !Ryberg
ecutrho =240
occupations = 'smearing'
smearing = 'gaussian'
degauss = 0.01

!SOC
noncolin = .TRUE.
lspinorb = .TRUE.
starting_magnetization(1) = 0
starting_magnetization(2) = 0


/

&ELECTRONS
conv_thr = 1.0d-7
mixing_beta = 0.495
mixing_mode = 'TF'
diagonalization= 'david'
adaptive_thr=.true.
/

ATOMIC_SPECIES
P 30.973762 P.pbe-n-rrkjus_psl.1.0.0.UPF 
W 183.84 W_pbe_v1.2.uspp.F.UPF 


ATOMIC_POSITIONS (crystal)
P 0.000000 0.429900 0.383300
P 0.500000 0.070100 0.883300
P 0.500000 0.202000 0.199700
P 0.000000 0.298000 0.699700
P 0.500000 0.929900 0.383300
P 0.000000 0.570100 0.883300
P 0.000000 0.702000 0.199700
P 0.500000 0.798000 0.699700
W 0.000000 0.093140 0.500000
W 0.500000 0.406860 0.000000
W 0.500000 0.593140 0.500000
W 0.000000 0.906860 0.000000


CELL_PARAMETERS (angstrom)
3.164900 0.000000 0.000000
0.000000 11.159900 0.000000
0.000000 0.000000 4.973200


K_POINTS (automatic)
8 8 8 0 0 0
